10
1    19    1000000
2    39    1000000
3     5    1000000
4    70    1000000
5    19    1000000
6    14    1000000
7    90    1000000
8    33    1000000
9    80    1000000
10    98   1000000
10000000
